20
OC(=O)CCCCC(=O)O
O       -3.86302549     -0.73445327     -0.46765886
C       -2.76701872     -0.01815926     -0.14854884
O       -2.75236651      1.19109923     -0.29947010
C       -1.66932210     -0.88867391      0.40327322
C       -0.34647962     -0.14148523      0.57690859
C        0.34648461      0.14148917     -0.76273842
C        1.66932978      0.88867328     -0.58910373
C        2.76701793      0.01815562     -0.03727003
O        2.75237993     -1.19110910      0.11359831
O        3.86299932      0.73445461      0.28191504
H       -4.49811875     -0.06452363     -0.79702473
H       -1.52931095     -1.74969218     -0.25936115
H       -2.00442819     -1.25136719      1.38155740
H        0.31120975     -0.75356968      1.20475409
H       -0.51256673      0.80031684      1.11392057
H        0.51256798     -0.80031231     -1.29975237
H       -0.31120247      0.75357715     -1.39058245
H        1.52931826      1.74969793      0.07352272
H        2.00444452      1.25135878     -1.56738815
H        4.49808744      0.06452314      0.61128585
