12
Ic1ccccc1
I        3.38152752     -0.24114396     -0.04894635
C        1.30815158     -0.09328713     -0.01893643
C        0.53109114     -1.25129622      0.02311971
C       -0.86105884     -1.14972725      0.04321363
C       -1.47071190      0.10487966      0.02128946
C       -0.69011745      1.26034500     -0.02076036
C        0.70235599      1.16333640     -0.04097585
H        0.99267028     -2.23499591      0.04057818
H       -1.47051095     -2.04930451      0.07597880
H       -2.55506066      0.18220693      0.03698690
H       -1.16646731      2.23735312     -0.03780767
H        1.29813062      2.07163386     -0.07374003
