24
Oc1ccccc1C1CC(O)C1
O       -0.95510039      2.10748750     -0.86829841
C       -1.49332162      1.04823195     -0.18424701
C       -2.88199309      0.91125452     -0.10773125
C       -3.42896522     -0.15471444      0.59883689
C       -2.58836095     -1.06838719      1.22422686
C       -1.20039467     -0.91651702      1.13750472
C       -0.60233423      0.14164753      0.42252825
C        0.97340198      0.31953041      0.32904261
C        1.62883670      0.39027246     -1.08101023
C        2.86681901     -0.30343364     -0.47326475
O        3.54071577     -1.25565437     -1.31322705
C        1.91139543     -0.89482967      0.58576212
H       -1.67993982      2.64213156     -1.23050248
H       -3.54525169      1.62351676     -0.58786191
H       -4.50712292     -0.27171043      0.66558841
H       -3.00725872     -1.90170612      1.78264334
H       -0.56886562     -1.64451116      1.64337430
H        1.28134439      1.17870552      0.94720291
H        1.80392691      1.39920524     -1.46514761
H        1.12078061     -0.19941220     -1.85344258
H        3.58561922      0.40704180     -0.04525885
H        3.92777569     -0.72509211     -2.03039829
H        2.31877222     -0.96158600      1.59854905
H        1.49952100     -1.87147092      0.30513097
