10
C1C2CC12
C        1.15380403      0.18593372     -0.00293133
C       -0.06698288     -0.09165265     -0.80612836
C       -1.06787716      0.44998162      0.15165199
C       -0.00586613     -0.44747947      0.68004251
H        2.03266998     -0.42338806     -0.18496084
H        1.40227585      1.21591141      0.23345310
H       -0.21340411     -0.95550515     -1.43493086
H       -1.03454696      1.50552903      0.40300604
H       -2.08102521      0.06552654      0.10126792
H       -0.11904742     -1.50485699      0.85952982
